c randN150_K3_R0.2_L30_41.cnf
p cnf 150 30
120 -23 31 0
40 50 95 0
-112 27 -75 0
51 -42 -33 0
-110 -116 -115 0
32 -3 134 0
-8 -102 117 0
144 77 -98 0
34 20 -97 0
139 100 -41 0
2 -124 141 0
24 47 135 0
-32 60 -105 0
-80 -148 -113 0
41 -57 -33 0
122 -61 109 0
-69 62 135 0
38 -130 118 0
26 -21 77 0
72 -125 39 0
16 -127 -34 0
10 -141 -116 0
83 -35 -129 0
64 -70 -131 0
-116 141 -122 0
-40 -62 -76 0
-88 -77 -67 0
-62 61 -106 0
-103 27 -49 0
-140 -98 55 0
